NAME
* Written by MOSEK version 6.0.0.137
OBJSENSE
    MIN
ROWS
 N  obj
 E  c1
 E  c2
 E  c3
 E  c4
 E  c5
 E  c6
 E  c7
 E  c8
 E  c9
 E  c10
 E  c11
 E  c12
 E  c13
 E  c14
 E  c15
 E  c16
 E  c17
 E  c18
 E  c19
 E  c20
 E  c21
 E  c22
 E  c23
 E  c24
 E  c25
 E  c26
 E  c27
 E  c28
 E  c29
 E  c30
 E  c31
 E  c32
 E  c33
 E  c34
 E  c35
 E  c36
 E  c37
 E  c38
 E  c39
 E  c40
 E  c41
 E  c42
 E  c43
 E  c44
 E  c45
 E  c46
 E  c47
 E  c48
 E  c49
 E  c50
 E  c51
 E  c52
COLUMNS
    x1        obj       2.51e+02
    x1        c1        1
    x1        c2        2
    x1        c3        8
    x1        c4        4
    x1        c5        10
    x1        c6        3
    x1        c7        4
    x1        c8        7
    x1        c9        2
    x1        c10       2
    x1        c51       4
    x1        c52       2
    x2        obj       3.48e+02
    x2        c2        6
    x2        c3        5
    x2        c4        7
    x2        c5        2
    x2        c6        4
    x2        c7        9
    x2        c8        4
    x2        c9        6
    x2        c10       7
    x2        c52       7
    x3        obj       3.26e+02
    x3        c2        6
    x3        c3        3
    x3        c4        3
    x3        c5        10
    x3        c6        5
    x3        c7        6
    x3        c8        9
    x3        c9        5
    x3        c10       8
    x3        c52       3
    x4        obj       2.72e+02
    x4        c2        5
    x4        c3        9
    x4        c4        5
    x4        c5        7
    x4        c6        5
    x4        c7        6
    x4        c8        4
    x4        c9        4
    x4        c10       4
    x4        c52       2
    x5        obj       2.18e+02
    x5        c2        4
    x5        c3        6
    x5        c4        4
    x5        c5        6
    x5        c6        5
    x5        c7        2
    x5        c8        4
    x5        c9        4
    x5        c10       4
    x5        c52       2
    x6        obj       2.47e+02
    x6        c2        5
    x6        c3        4
    x6        c4        6
    x6        c5        7
    x6        c6        7
    x6        c7        4
    x6        c8        2
    x6        c9        3
    x6        c10       4
    x6        c52       3
    x7        obj       3.76e+02
    x7        c2        4
    x7        c3        4
    x7        c4        2
    x7        c5        4
    x7        c6        9
    x7        c7        8
    x7        c8        10
    x7        c9        6
    x7        c10       10
    x7        c52       7
    x8        obj       2.96e+02
    x8        c2        5
    x8        c3        7
    x8        c4        2
    x8        c5        2
    x8        c6        2
    x8        c7        2
    x8        c8        5
    x8        c9        11
    x8        c10       8
    x8        c52       7
    x9        obj       2.75e+02
    x9        c2        2
    x9        c3        3
    x9        c4        8
    x9        c5        8
    x9        c6        5
    x9        c7        5
    x9        c8        2
    x9        c9        1
    x9        c10       7
    x9        c52       5
    x10       obj       3.69e+02
    x10       c2        12
    x10       c3        4
    x10       c4        6
    x10       c5        5
    x10       c6        6
    x10       c7        5
    x10       c8        3
    x10       c9        10
    x10       c10       8
    x10       c52       4
    x11       obj       3.13e+02
    x11       c2        4
    x11       c3        2
    x11       c4        7
    x11       c5        3
    x11       c6        4
    x11       c7        9
    x11       c8        4
    x11       c9        3
    x11       c10       8
    x11       c52       5
    x12       obj       3.15e+02
    x12       c2        10
    x12       c3        5
    x12       c4        5
    x12       c5        6
    x12       c6        5
    x12       c7        5
    x12       c8        8
    x12       c9        2
    x12       c10       8
    x12       c52       3
    x13       obj       2.98e+02
    x13       c2        4
    x13       c3        4
    x13       c4        6
    x13       c5        6
    x13       c6        5
    x13       c7        2
    x13       c8        10
    x13       c9        6
    x13       c10       5
    x13       c52       8
    x14       obj       3.26e+02
    x14       c2        3
    x14       c3        5
    x14       c4        7
    x14       c5        6
    x14       c6        9
    x14       c7        4
    x14       c8        8
    x14       c9        6
    x14       c10       5
    x14       c52       6
    x15       obj       2.43e+02
    x15       c2        3
    x15       c3        1
    x15       c4        2
    x15       c5        2
    x15       c6        6
    x15       c7        4
    x15       c8        6
    x15       c9        2
    x15       c10       9
    x15       c52       4
    x16       obj       3.46e+02
    x16       c11       1
    x16       c12       8
    x16       c13       7
    x16       c14       6
    x16       c15       3
    x16       c16       10
    x16       c17       3
    x16       c18       8
    x16       c19       8
    x16       c20       2
    x16       c51       6
    x16       c52       4
    x17       obj       1.75e+02
    x17       c12       7
    x17       c13       3
    x17       c14       1
    x17       c15       5
    x17       c16       4
    x17       c17       3
    x17       c18       6
    x17       c19       4
    x17       c20       3
    x17       c52       1
    x18       obj       2.4e+02
    x18       c12       1
    x18       c13       5
    x18       c14       3
    x18       c15       5
    x18       c16       4
    x18       c17       6
    x18       c18       6
    x18       c19       4
    x18       c20       4
    x18       c52       9
    x19       obj       2.77e+02
    x19       c12       5
    x19       c13       8
    x19       c14       4
    x19       c15       3
    x19       c16       4
    x19       c17       7
    x19       c18       5
    x19       c19       4
    x19       c20       5
    x19       c52       8
    x20       obj       1.74e+02
    x20       c12       5
    x20       c13       7
    x20       c14       4
    x20       c15       3
    x20       c16       2
    x20       c17       2
    x20       c18       4
    x20       c19       1
    x20       c20       3
    x20       c52       5
    x21       obj       2.49e+02
    x21       c12       8
    x21       c13       4
    x21       c14       6
    x21       c15       6
    x21       c16       5
    x21       c17       6
    x21       c18       8
    x21       c19       3
    x21       c20       3
    x21       c52       7
    x22       obj       2.97e+02
    x22       c12       5
    x22       c13       7
    x22       c14       7
    x22       c15       4
    x22       c16       4
    x22       c17       9
    x22       c18       9
    x22       c19       3
    x22       c20       6
    x22       c52       7
    x23       obj       2.74e+02
    x23       c12       6
    x23       c13       5
    x23       c14       9
    x23       c15       7
    x23       c16       6
    x23       c17       6
    x23       c18       7
    x23       c19       5
    x23       c20       4
    x23       c52       2
    x24       obj       3.21e+02
    x24       c12       6
    x24       c13       2
    x24       c14       6
    x24       c15       10
    x24       c16       2
    x24       c17       8
    x24       c18       8
    x24       c19       11
    x24       c20       5
    x24       c52       4
    x25       obj       2.51e+02
    x25       c12       10
    x25       c13       3
    x25       c14       3
    x25       c15       7
    x25       c16       6
    x25       c17       2
    x25       c18       3
    x25       c19       8
    x25       c20       4
    x25       c52       9
    x26       obj       2.03e+02
    x26       c12       10
    x26       c13       3
    x26       c14       7
    x26       c15       6
    x26       c16       4
    x26       c17       2
    x26       c18       4
    x26       c19       3
    x26       c20       7
    x26       c52       4
    x27       obj       2.2e+02
    x27       c12       8
    x27       c13       6
    x27       c14       2
    x27       c15       5
    x27       c16       2
    x27       c17       4
    x27       c18       2
    x27       c19       6
    x27       c20       6
    x27       c52       2
    x28       obj       2.82e+02
    x28       c12       7
    x28       c13       5
    x28       c14       3
    x28       c15       3
    x28       c16       4
    x28       c17       7
    x28       c18       6
    x28       c19       9
    x28       c20       3
    x28       c52       5
    x29       obj       2.67e+02
    x29       c12       3
    x29       c13       9
    x29       c14       7
    x29       c15       3
    x29       c16       4
    x29       c17       4
    x29       c18       7
    x29       c19       5
    x29       c20       5
    x29       c52       3
    x30       obj       3.05e+02
    x30       c12       6
    x30       c13       4
    x30       c14       6
    x30       c15       7
    x30       c16       3
    x30       c17       6
    x30       c18       9
    x30       c19       7
    x30       c20       7
    x30       c52       8
    x31       obj       3.5e+02
    x31       c21       1
    x31       c22       3
    x31       c23       7
    x31       c24       4
    x31       c25       8
    x31       c26       4
    x31       c27       5
    x31       c28       6
    x31       c29       7
    x31       c30       4
    x31       c51       6
    x31       c52       2
    x32       obj       3.09e+02
    x32       c22       4
    x32       c23       5
    x32       c24       6
    x32       c25       5
    x32       c26       4
    x32       c27       4
    x32       c28       6
    x32       c29       5
    x32       c30       10
    x32       c52       6
    x33       obj       2.86e+02
    x33       c22       5
    x33       c23       8
    x33       c24       4
    x33       c25       6
    x33       c26       3
    x33       c27       4
    x33       c28       1
    x33       c29       10
    x33       c30       3
    x33       c52       1
    x34       obj       3.33e+02
    x34       c22       6
    x34       c23       7
    x34       c24       6
    x34       c25       2
    x34       c26       4
    x34       c27       7
    x34       c28       6
    x34       c29       7
    x34       c30       7
    x34       c52       2
    x35       obj       3.43e+02
    x35       c23       7
    x35       c24       13
    x35       c25       5
    x35       c26       4
    x35       c27       5
    x35       c28       9
    x35       c29       9
    x35       c30       1
    x35       c52       4
    x36       obj       3.59e+02
    x36       c22       9
    x36       c23       3
    x36       c24       8
    x36       c25       6
    x36       c26       5
    x36       c27       8
    x36       c28       7
    x36       c29       6
    x36       c30       4
    x36       c52       4
    x37       obj       2.75e+02
    x37       c22       6
    x37       c23       3
    x37       c24       3
    x37       c25       6
    x37       c26       7
    x37       c27       4
    x37       c28       2
    x37       c29       9
    x37       c30       6
    x37       c52       4
    x38       obj       3.79e+02
    x38       c22       8
    x38       c23       9
    x38       c24       7
    x38       c25       4
    x38       c26       11
    x38       c27       6
    x38       c28       7
    x38       c29       2
    x38       c30       7
    x38       c52       6
    x39       obj       2.64e+02
    x39       c22       2
    x39       c23       5
    x39       c24       6
    x39       c25       4
    x39       c26       5
    x39       c27       2
    x39       c28       4
    x39       c29       4
    x39       c30       10
    x39       c52       8
    x40       obj       2.34e+02
    x40       c22       3
    x40       c24       4
    x40       c25       5
    x40       c26       7
    x40       c27       4
    x40       c28       6
    x40       c29       8
    x40       c30       5
    x40       c52       4
    x41       obj       3.15e+02
    x41       c22       9
    x41       c23       6
    x41       c24       7
    x41       c25       5
    x41       c26       8
    x41       c27       5
    x41       c28       2
    x41       c29       3
    x41       c30       1
    x41       c52       7
    x42       obj       3.56e+02
    x42       c22       7
    x42       c23       5
    x42       c24       8
    x42       c25       5
    x42       c26       11
    x42       c27       6
    x42       c28       6
    x42       c29       4
    x42       c30       5
    x42       c52       8
    x43       obj       3.15e+02
    x43       c22       3
    x43       c23       7
    x43       c24       9
    x43       c25       8
    x43       c26       6
    x43       c27       4
    x43       c28       3
    x43       c29       2
    x43       c30       7
    x43       c52       5
    x44       obj       2.7e+02
    x44       c22       4
    x44       c23       4
    x44       c24       6
    x44       c25       3
    x44       c26       4
    x44       c27       2
    x44       c28       8
    x44       c29       6
    x44       c30       7
    x44       c52       6
    x45       obj       3.23e+02
    x45       c22       7
    x45       c23       5
    x45       c24       5
    x45       c25       6
    x45       c26       5
    x45       c27       5
    x45       c28       7
    x45       c29       3
    x45       c30       9
    x45       c52       5
    x46       obj       2.69e+02
    x46       c31       1
    x46       c32       8
    x46       c33       6
    x46       c34       5
    x46       c35       6
    x46       c36       2
    x46       c37       1
    x46       c38       8
    x46       c39       8
    x46       c40       5
    x46       c51       3
    x46       c52       6
    x47       obj       2.4e+02
    x47       c32       7
    x47       c33       5
    x47       c34       6
    x47       c35       9
    x47       c36       7
    x47       c37       5
    x47       c38       3
    x47       c39       4
    x47       c40       1
    x47       c52       3
    x48       obj       2.14e+02
    x48       c32       3
    x48       c33       4
    x48       c34       8
    x48       c35       2
    x48       c36       4
    x48       c37       6
    x48       c38       5
    x48       c39       3
    x48       c40       5
    x48       c52       6
    x49       obj       1.83e+02
    x49       c32       2
    x49       c33       2
    x49       c34       2
    x49       c35       5
    x49       c36       2
    x49       c37       7
    x49       c38       5
    x49       c39       9
    x49       c40       3
    x49       c52       4
    x50       obj       2.28e+02
    x50       c32       5
    x50       c33       2
    x50       c34       3
    x50       c35       7
    x50       c36       7
    x50       c37       5
    x50       c38       6
    x50       c39       4
    x50       c40       7
    x50       c52       4
    x51       obj       1.53e+02
    x51       c32       1
    x51       c33       5
    x51       c34       5
    x51       c35       5
    x51       c36       3
    x51       c37       3
    x51       c38       1
    x51       c39       2
    x51       c40       4
    x51       c52       5
    x52       obj       2.13e+02
    x52       c32       5
    x52       c33       5
    x52       c34       6
    x52       c35       8
    x52       c36       3
    x52       c37       5
    x52       c38       7
    x52       c39       2
    x52       c40       6
    x52       c52       3
    x53       obj       2.59e+02
    x53       c32       5
    x53       c33       6
    x53       c34       5
    x53       c35       7
    x53       c36       7
    x53       c37       4
    x53       c38       6
    x53       c39       6
    x53       c40       5
    x53       c52       5
    x54       obj       2.36e+02
    x54       c32       5
    x54       c33       8
    x54       c34       1
    x54       c35       3
    x54       c36       4
    x54       c37       7
    x54       c38       9
    x54       c39       6
    x54       c40       2
    x54       c52       6
    x55       obj       2.69e+02
    x55       c32       13
    x55       c33       4
    x55       c34       5
    x55       c35       13
    x55       c36       8
    x55       c37       4
    x55       c38       7
    x55       c39       4
    x55       c40       1
    x55       c52       2
    x56       obj       2.17e+02
    x56       c32       5
    x56       c33       3
    x56       c34       1
    x56       c35       3
    x56       c36       5
    x56       c37       8
    x56       c38       3
    x56       c39       5
    x56       c40       8
    x56       c52       3
    x57       obj       1.94e+02
    x57       c32       3
    x57       c33       3
    x57       c34       4
    x57       c35       8
    x57       c36       5
    x57       c37       3
    x57       c38       1
    x57       c39       5
    x57       c40       7
    x57       c52       4
    x58       obj       2.11e+02
    x58       c32       6
    x58       c33       6
    x58       c34       3
    x58       c35       4
    x58       c36       1
    x58       c37       7
    x58       c38       6
    x58       c39       6
    x58       c40       7
    x58       c52       2
    x59       obj       2.27e+02
    x59       c32       1
    x59       c33       3
    x59       c34       6
    x59       c35       5
    x59       c36       7
    x59       c37       8
    x59       c38       2
    x59       c39       7
    x59       c40       4
    x59       c52       3
    x60       obj       2.2e+02
    x60       c32       3
    x60       c33       8
    x60       c34       7
    x60       c35       4
    x60       c36       5
    x60       c37       2
    x60       c38       5
    x60       c39       4
    x60       c40       4
    x60       c52       7
    x61       obj       3.39e+02
    x61       c41       1
    x61       c42       3
    x61       c43       7
    x61       c44       1
    x61       c45       4
    x61       c46       2
    x61       c47       5
    x61       c48       4
    x61       c49       4
    x61       c50       12
    x61       c51       9
    x61       c52       7
    x62       obj       2.86e+02
    x62       c42       5
    x62       c43       5
    x62       c44       4
    x62       c45       6
    x62       c46       4
    x62       c47       5
    x62       c48       2
    x62       c49       7
    x62       c50       3
    x62       c52       4
    x63       obj       3.46e+02
    x63       c42       9
    x63       c43       6
    x63       c44       8
    x63       c45       4
    x63       c46       8
    x63       c47       4
    x63       c48       5
    x63       c49       2
    x63       c50       4
    x63       c52       6
    x64       obj       3.29e+02
    x64       c42       9
    x64       c43       4
    x64       c44       7
    x64       c45       4
    x64       c46       3
    x64       c47       5
    x64       c48       5
    x64       c49       4
    x64       c50       3
    x64       c52       7
    x65       obj       2.83e+02
    x65       c42       6
    x65       c43       3
    x65       c44       5
    x65       c45       5
    x65       c46       5
    x65       c47       5
    x65       c48       7
    x65       c49       1
    x65       c50       8
    x65       c52       2
    x66       obj       3.49e+02
    x66       c42       10
    x66       c43       7
    x66       c44       4
    x66       c45       3
    x66       c46       3
    x66       c47       3
    x66       c48       5
    x66       c49       7
    x66       c50       3
    x66       c52       7
    x67       obj       3.34e+02
    x67       c42       7
    x67       c43       3
    x67       c44       4
    x67       c45       2
    x67       c46       5
    x67       c47       4
    x67       c48       7
    x67       c49       9
    x67       c50       5
    x67       c52       6
    x68       obj       3.21e+02
    x68       c42       6
    x68       c44       7
    x68       c45       5
    x68       c46       7
    x68       c47       8
    x68       c48       7
    x68       c49       4
    x68       c50       3
    x68       c52       4
    x69       obj       2.17e+02
    x69       c42       3
    x69       c43       3
    x69       c44       3
    x69       c45       2
    x69       c46       3
    x69       c47       8
    x69       c48       5
    x69       c49       1
    x69       c50       6
    x69       c52       2
    x70       obj       3.12e+02
    x70       c42       2
    x70       c43       6
    x70       c44       2
    x70       c45       7
    x70       c46       6
    x70       c47       4
    x70       c48       4
    x70       c49       9
    x70       c50       5
    x70       c52       7
    x71       obj       3.32e+02
    x71       c42       3
    x71       c43       7
    x71       c44       8
    x71       c45       5
    x71       c46       3
    x71       c47       4
    x71       c48       7
    x71       c49       5
    x71       c50       6
    x71       c52       5
    x72       obj       3.12e+02
    x72       c42       4
    x72       c43       6
    x72       c44       6
    x72       c45       6
    x72       c46       5
    x72       c47       2
    x72       c48       4
    x72       c49       7
    x72       c50       4
    x72       c52       7
    x73       obj       2.74e+02
    x73       c42       3
    x73       c43       5
    x73       c44       4
    x73       c45       8
    x73       c46       3
    x73       c47       5
    x73       c48       6
    x73       c49       4
    x73       c50       3
    x73       c52       1
    x74       obj       2.9e+02
    x74       c42       4
    x74       c43       6
    x74       c44       6
    x74       c45       3
    x74       c46       6
    x74       c47       5
    x74       c48       3
    x74       c49       6
    x74       c50       5
    x74       c52       4
    x75       obj       3.26e+02
    x75       c42       3
    x75       c43       8
    x75       c44       7
    x75       c45       5
    x75       c46       4
    x75       c47       5
    x75       c48       6
    x75       c49       4
    x75       c50       6
    x75       c52       5
RHS
    rhs       c1        21
    rhs       c2        4.01e+02
    rhs       c3        5.03e+02
    rhs       c4        4.5e+02
    rhs       c5        5.95e+02
    rhs       c6        4.47e+02
    rhs       c7        4.57e+02
    rhs       c8        5.44e+02
    rhs       c9        4.05e+02
    rhs       c10       5.41e+02
    rhs       c11       25
    rhs       c12       6.82e+02
    rhs       c13       6.07e+02
    rhs       c14       5.6e+02
    rhs       c15       4.89e+02
    rhs       c16       5.78e+02
    rhs       c17       4.78e+02
    rhs       c18       6.71e+02
    rhs       c19       6.08e+02
    rhs       c20       4.17e+02
    rhs       c21       20
    rhs       c22       4.31e+02
    rhs       c23       5.05e+02
    rhs       c24       5.22e+02
    rhs       c25       5.01e+02
    rhs       c26       5.06e+02
    rhs       c27       4.16e+02
    rhs       c28       4.71e+02
    rhs       c29       4.77e+02
    rhs       c30       4.71e+02
    rhs       c31       23
    rhs       c32       5.21e+02
    rhs       c33       4.64e+02
    rhs       c34       4.42e+02
    rhs       c35       6.09e+02
    rhs       c36       4.36e+02
    rhs       c37       4.23e+02
    rhs       c38       5.11e+02
    rhs       c39       5.59e+02
    rhs       c40       4.8e+02
    rhs       c41       20
    rhs       c42       4.28e+02
    rhs       c43       4.9e+02
    rhs       c44       3.85e+02
    rhs       c45       4.02e+02
    rhs       c46       3.57e+02
    rhs       c47       4.3e+02
    rhs       c48       4.45e+02
    rhs       c49       4.44e+02
    rhs       c50       5.62e+02
    rhs       c51       6.03e+02
    rhs       c52       2.169e+03
RANGES
BOUNDS
 LI bound     x1        0
 LI bound     x2        0
 LI bound     x3        0
 LI bound     x4        0
 LI bound     x5        0
 LI bound     x6        0
 LI bound     x7        0
 LI bound     x8        0
 FR bound     x9
 FR bound     x10
 FR bound     x11
 FR bound     x12
 FR bound     x13
 FR bound     x14
 FR bound     x15
 LI bound     x16       0
 LI bound     x17       0
 LI bound     x18       0
 LI bound     x19       0
 LI bound     x20       0
 LI bound     x21       0
 LI bound     x22       0
 LI bound     x23       0
 FR bound     x24
 FR bound     x25
 FR bound     x26
 FR bound     x27
 FR bound     x28
 FR bound     x29
 FR bound     x30
 LI bound     x31       0
 LI bound     x32       0
 LI bound     x33       0
 LI bound     x34       0
 LI bound     x35       0
 LI bound     x36       0
 LI bound     x37       0
 LI bound     x38       0
 FR bound     x39
 FR bound     x40
 FR bound     x41
 FR bound     x42
 FR bound     x43
 FR bound     x44
 FR bound     x45
 LI bound     x46       0
 LI bound     x47       0
 LI bound     x48       0
 LI bound     x49       0
 LI bound     x50       0
 LI bound     x51       0
 LI bound     x52       0
 LI bound     x53       0
 FR bound     x54
 FR bound     x55
 FR bound     x56
 FR bound     x57
 FR bound     x58
 FR bound     x59
 FR bound     x60
 LI bound     x61       0
 LI bound     x62       0
 LI bound     x63       0
 LI bound     x64       0
 LI bound     x65       0
 LI bound     x66       0
 LI bound     x67       0
 LI bound     x68       0
 FR bound     x69
 FR bound     x70
 FR bound     x71
 FR bound     x72
 FR bound     x73
 FR bound     x74
 FR bound     x75
CSECTION      k1        0              QUAD
    x1
    x2
    x3
    x4
    x5
    x6
    x7
    x8
    x9
    x10
    x11
    x12
    x13
    x14
    x15
CSECTION      k2        0              QUAD
    x16
    x17
    x18
    x19
    x20
    x21
    x22
    x23
    x24
    x25
    x26
    x27
    x28
    x29
    x30
CSECTION      k3        0              QUAD
    x31
    x32
    x33
    x34
    x35
    x36
    x37
    x38
    x39
    x40
    x41
    x42
    x43
    x44
    x45
CSECTION      k4        0              QUAD
    x46
    x47
    x48
    x49
    x50
    x51
    x52
    x53
    x54
    x55
    x56
    x57
    x58
    x59
    x60
CSECTION      k5        0              QUAD
    x61
    x62
    x63
    x64
    x65
    x66
    x67
    x68
    x69
    x70
    x71
    x72
    x73
    x74
    x75
ENDATA
